SAT
146 -18 -47 80 130 -133 -141 -75 -7 -71 74 128 -116 82 -52 100 -20 -154 -68 73 119 -93 151 -36 174 118 -49 -70 135 -126 11 -178 156 101 48 132 45 -22 173 142 195 81 -46 187 43 200 -44 -164 160 -53 155 171 -60 143 123 76 166 145 -177 69 -4 199 40 -41 29 -115 168 169 -120 39 97 -79 117 161 -26 23 -163 106 35 -113 -102 -96 61 -98 167 -66 -92 -95 -28 -67 122 -94 179 54 -144 180 -112 33 87 15 162 51 150 -64 -55 -99 85 -32 13 -114 -170 19 -65 -157 59 58 -182 9 -185 194 104 88 -109 -190 -147 12 37 77 84 42 17 -129 -134 165 5 31 152 139 83 57 -6 -16 131 -193 103 -153 124 -198 -10 181 -125 -2 -159 30 -184 137 -78 186 34 -63 86 90 191 -140 -148 -24 188 158 -1 -56 -149 -197 50 175 108 -38 -121 -21 -25 72 -62 -136 -111 196 172 27 91 192 14 183 3 107 105 176 127 189 -8 110 89 138 0
